56
3 11 96 18 
2 5 103 
5 17 83 39 110 67 
3 58 90 1 
2 25 30 
3 98 34 24 
2 49 75 
2 70 114 
3 56 109 87 
2 71 22 
2 43 63 
2 118 32 
2 102 94 
2 4 106 
2 65 23 
3 95 13 44 
2 47 27 
3 116 100 48 
2 40 74 
2 54 77 
2 92 85 
2 66 60 
3 8 35 42 
2 6 12 
3 52 15 36 
3 28 21 62 
2 99 68 
3 9 64 113 
2 46 26 
2 81 107 
2 55 80 
2 61 91 
2 112 50 
2 104 3 
2 76 84 
3 31 93 41 
2 14 2 
2 82 33 
1 117 
2 45 53 
3 7 38 78 
1 108 
2 51 115 
2 10 97 
2 16 69 
2 111 88 
1 89 
2 59 19 
2 105 86 
2 79 72 
1 119 
1 20 
1 120 
2 29 37 
2 73 57 
1 101 
